Set parameter TokenServer to value "hpc-licenses.hpcc.usc.edu"
Set parameter TimeLimit to value 3600
Gurobi Optimizer version 9.5.1 build v9.5.1rc2 (linux64)
Thread count: 20 physical cores, 20 logical processors, using up to 20 threads
Optimize a model with 6007 rows, 4529 columns and 24534 nonzeros
Model fingerprint: 0xf1f64e94
Variable types: 4506 continuous, 23 integer (23 binary)
Coefficient statistics:
  Matrix range     [1e+00, 1e+00]
  Objective range  [1e-02, 1e+00]
  Bounds range     [1e+00, 1e+00]
  RHS range        [1e+00, 4e+01]
Found heuristic solution: objective 255.8293927
Presolve removed 1514 rows and 1511 columns
Presolve time: 0.06s
Presolved: 4493 rows, 3018 columns, 21993 nonzeros
Variable types: 2998 continuous, 20 integer (20 binary)

Root relaxation: objective 2.589169e+02, 1815 iterations, 0.06 seconds (0.08 work units)

    Nodes    |    Current Node    |     Objective Bounds      |     Work
 Expl Unexpl |  Obj  Depth IntInf | Incumbent    BestBd   Gap | It/Node Time

     0     0  258.91685    0    3  255.82939  258.91685  1.21%     -    0s
     0     0  258.67601    0    4  255.82939  258.67601  1.11%     -    0s
     0     0  258.40478    0    4  255.82939  258.40478  1.01%     -    0s
     0     0  258.40478    0    4  255.82939  258.40478  1.01%     -    0s
H    0     0                     258.1958769  258.40478  0.08%     -    0s

Cutting planes:
  Gomory: 5
  MIR: 128
  RLT: 19

Explored 1 nodes (2314 simplex iterations) in 0.48 seconds (0.34 work units)
Thread count was 20 (of 20 available processors)

Solution count 2: 258.196 255.829 

Optimal solution found (tolerance 1.00e-04)
Best objective 2.581958769378e+02, best bound 2.581958769378e+02, gap 0.0000%



#########node  1
V1.9
#########node  2
0.339622641509434,0.660377358490566
#########node  3
1.0,0.0


Total Solving Time 0.913571834564209
obj value 258.19587693779806
Policy Regret train (Sum) 1.515319924254638
Best Treatment Found train (%) 88.8
treatment classification acc train (%) 56.2
Policy Regret test (Sum) 145.29074060878332
Best Treatment Found test (%) 59.919999999999995
treatment classification acc test (%) 57.89
